Welcome to the CBC MILP Solver 
Version: 2.10.7 
Build Date: Feb 14 2022 

command line - cbc inputs/new_no_tr/order/default20_down_left_input.lp sec 1800 solve solu solutions/new_no_tr/default20_down_left_input.lp (default strategy 1)
seconds was changed from 1e+100 to 1800
Continuous objective value is 23990.9 - 0.03 seconds
Cgl0002I 65 variables fixed
Cgl0003I 0 fixed, 12 tightened bounds, 221 strengthened rows, 0 substitutions
Cgl0003I 0 fixed, 3 tightened bounds, 34 strengthened rows, 0 substitutions
Cgl0003I 0 fixed, 6 tightened bounds, 29 strengthened rows, 0 substitutions
Cgl0003I 2 fixed, 1 tightened bounds, 11 strengthened rows, 3 substitutions
Cgl0003I 0 fixed, 0 tightened bounds, 20 strengthened rows, 0 substitutions
Cgl0003I 0 fixed, 0 tightened bounds, 19 strengthened rows, 0 substitutions
Cgl0003I 0 fixed, 0 tightened bounds, 12 strengthened rows, 0 substitutions
Cgl0003I 0 fixed, 0 tightened bounds, 7 strengthened rows, 0 substitutions
Cgl0003I 0 fixed, 0 tightened bounds, 1 strengthened rows, 0 substitutions
Cgl0004I processed model has 1200 rows, 402 columns (402 integer (381 of which binary)) and 4034 elements
Cutoff increment increased from 1e-05 to 0.9999
Cbc0045I 1 integer variables out of 402 objects (402 integer) have cost of 1 - high priority
Cbc0045I branch on satisfied Y create fake objective Y random cost Y
Cbc0038I Initial state - 216 integers unsatisfied sum - 48.161
Cbc0038I Pass   1: suminf.    9.65795 (86) obj. 28015.9 iterations 557
Cbc0038I Pass   2: suminf.   10.06282 (83) obj. 28014.6 iterations 10
Cbc0038I Pass   3: suminf.    4.22214 (26) obj. 28520.6 iterations 269
Cbc0038I Pass   4: suminf.    3.40054 (18) obj. 29788.1 iterations 60
Cbc0038I Pass   5: suminf.    0.00000 (0) obj. 33792 iterations 98
Cbc0038I Solution found of 33792
Cbc0038I Cleaned solution of 33792
Cbc0038I Before mini branch and bound, 160 integers at bound fixed and 0 continuous
Cbc0038I Mini branch and bound did not improve solution (0.22 seconds)
Cbc0038I Round again with cutoff of 32811
Cbc0038I Pass   6: suminf.    9.65795 (86) obj. 28015.9 iterations 0
Cbc0038I Pass   7: suminf.   10.06282 (83) obj. 28014.6 iterations 21
Cbc0038I Pass   8: suminf.    0.73186 (14) obj. 28672 iterations 325
Cbc0038I Pass   9: suminf.    0.00000 (0) obj. 28672 iterations 44
Cbc0038I Solution found of 28672
Cbc0038I Cleaned solution of 28672
Cbc0038I Before mini branch and bound, 162 integers at bound fixed and 0 continuous
Cbc0038I Mini branch and bound did not improve solution (0.26 seconds)
Cbc0038I Round again with cutoff of 27735
Cbc0038I Reduced cost fixing fixed 4 variables on major pass 3
Cbc0038I Pass  10: suminf.    9.55087 (86) obj. 27734 iterations 4
Cbc0038I Pass  11: suminf.    9.69749 (84) obj. 27735 iterations 20
Cbc0038I Pass  12: suminf.    6.24242 (33) obj. 27735 iterations 190
Cbc0038I Pass  13: suminf.    6.24242 (33) obj. 27735 iterations 9
Cbc0038I Pass  14: suminf.    5.34373 (30) obj. 27735 iterations 346
Cbc0038I Pass  15: suminf.    4.77515 (27) obj. 27735 iterations 15
Cbc0038I Pass  16: suminf.    3.43373 (19) obj. 27735 iterations 78
Cbc0038I Pass  17: suminf.    2.65485 (20) obj. 27735 iterations 41
Cbc0038I Pass  18: suminf.    2.77369 (12) obj. 27735 iterations 64
Cbc0038I Pass  19: suminf.    2.77369 (12) obj. 27735 iterations 24
Cbc0038I Pass  20: suminf.    0.63854 (7) obj. 27735 iterations 34
Cbc0038I Pass  21: suminf.    0.02849 (1) obj. 27735 iterations 15
Cbc0038I Solution found of 27735
Cbc0038I Branch and bound needed to clear up 1 general integers
Cbc0038I Full problem 1201 rows 402 columns, reduced to 0 rows 0 columns
Cbc0038I Cleaned solution of 27648
Cbc0038I Before mini branch and bound, 158 integers at bound fixed and 0 continuous
Cbc0038I Full problem 1200 rows 402 columns, reduced to 889 rows 244 columns - 148 fixed gives 86, 33 - ok now
Cbc0038I Full problem 1200 rows 402 columns, reduced to 36 rows 15 columns
Cbc0038I Mini branch and bound did not improve solution (0.36 seconds)
Cbc0038I Round again with cutoff of 26550.2
Cbc0038I Reduced cost fixing fixed 11 variables on major pass 4
Cbc0038I Pass  22: suminf.   10.15831 (89) obj. 26550.2 iterations 52
Cbc0038I Pass  23: suminf.   10.22654 (80) obj. 26550.2 iterations 74
Cbc0038I Pass  24: suminf.    9.17015 (64) obj. 26550.2 iterations 407
Cbc0038I Pass  25: suminf.    7.09099 (59) obj. 26550.2 iterations 157
Cbc0038I Pass  26: suminf.    6.72174 (69) obj. 26550.2 iterations 101
Cbc0038I Pass  27: suminf.    3.98414 (55) obj. 26550.2 iterations 56
Cbc0038I Pass  28: suminf.    6.18110 (71) obj. 26550.2 iterations 129
Cbc0038I Pass  29: suminf.    5.18488 (71) obj. 26550.2 iterations 63
Cbc0038I Pass  30: suminf.    8.54090 (64) obj. 26550.2 iterations 203
Cbc0038I Pass  31: suminf.    6.61992 (86) obj. 26550.2 iterations 89
Cbc0038I Pass  32: suminf.    6.04262 (84) obj. 26550.2 iterations 5
Cbc0038I Pass  33: suminf.    7.52281 (51) obj. 26550.2 iterations 195
Cbc0038I Pass  34: suminf.    2.80286 (28) obj. 26550.2 iterations 89
Cbc0038I Pass  35: suminf.    1.55525 (28) obj. 26550.2 iterations 88
Cbc0038I Pass  36: suminf.    6.07974 (32) obj. 26550.2 iterations 197
Cbc0038I Pass  37: suminf.    3.15245 (30) obj. 26550.2 iterations 199
Cbc0038I Pass  38: suminf.    2.78900 (25) obj. 26550.2 iterations 28
Cbc0038I Pass  39: suminf.    7.94427 (29) obj. 26550.2 iterations 162
Cbc0038I Pass  40: suminf.    3.89061 (30) obj. 26550.2 iterations 181
Cbc0038I Pass  41: suminf.    3.89061 (30) obj. 26550.2 iterations 2
Cbc0038I Pass  42: suminf.    2.82147 (23) obj. 26550.2 iterations 88
Cbc0038I Pass  43: suminf.    1.56127 (24) obj. 26550.2 iterations 39
Cbc0038I Pass  44: suminf.    6.82390 (31) obj. 26550.2 iterations 141
Cbc0038I Pass  45: suminf.    1.60889 (30) obj. 26550.2 iterations 190
Cbc0038I Pass  46: suminf.   30.67969 (125) obj. 26550.2 iterations 437
Cbc0038I Pass  47: suminf.    8.14930 (64) obj. 26550.2 iterations 450
Cbc0038I Pass  48: suminf.    6.32431 (55) obj. 26550.2 iterations 123
Cbc0038I Pass  49: suminf.    3.25386 (30) obj. 26550.2 iterations 123
Cbc0038I Pass  50: suminf.    4.38113 (30) obj. 26550.2 iterations 283
Cbc0038I Pass  51: suminf.    4.38113 (30) obj. 26550.2 iterations 4
Cbc0038I Pass  52: suminf.    7.25969 (60) obj. 26550.2 iterations 134
Cbc0038I Pass  53: suminf.    4.61436 (27) obj. 26550.2 iterations 46
Cbc0038I Pass  54: suminf.    4.71779 (54) obj. 26550.2 iterations 40
Cbc0038I Pass  55: suminf.    5.89625 (29) obj. 26550.2 iterations 291
Cbc0038I Pass  56: suminf.    5.89680 (29) obj. 26550.2 iterations 18
Cbc0038I Pass  57: suminf.    5.81472 (60) obj. 26550.2 iterations 192
Cbc0038I Pass  58: suminf.    5.62211 (59) obj. 26550.2 iterations 6
Cbc0038I Pass  59: suminf.    9.21278 (64) obj. 26550.2 iterations 359
Cbc0038I Pass  60: suminf.    5.14976 (48) obj. 26550.2 iterations 62
Cbc0038I Pass  61: suminf.    4.50836 (30) obj. 26550.2 iterations 26
Cbc0038I Pass  62: suminf.    3.30750 (32) obj. 26550.2 iterations 102
Cbc0038I Pass  63: suminf.    3.25988 (26) obj. 26550.2 iterations 31
Cbc0038I Pass  64: suminf.    5.12529 (29) obj. 26550.2 iterations 150
Cbc0038I Pass  65: suminf.    5.12529 (29) obj. 26550.2 iterations 1
Cbc0038I Pass  66: suminf.   25.25485 (134) obj. 26550.2 iterations 399
Cbc0038I Pass  67: suminf.   12.16886 (72) obj. 26550.2 iterations 218
Cbc0038I Pass  68: suminf.    9.19254 (48) obj. 26550.2 iterations 92
Cbc0038I Pass  69: suminf.    4.24591 (31) obj. 26550.2 iterations 60
Cbc0038I Pass  70: suminf.    7.10231 (31) obj. 26550.2 iterations 155
Cbc0038I Pass  71: suminf.    3.72493 (27) obj. 26550.2 iterations 40
Cbc0038I Pass  72: suminf.    5.38809 (29) obj. 26550.2 iterations 177
Cbc0038I Pass  73: suminf.    4.95164 (29) obj. 26550.2 iterations 25
Cbc0038I Pass  74: suminf.    7.07407 (28) obj. 26550.2 iterations 140
Cbc0038I Pass  75: suminf.    4.92788 (30) obj. 26550.2 iterations 45
Cbc0038I Pass  76: suminf.    3.75446 (28) obj. 26550.2 iterations 252
Cbc0038I Pass  77: suminf.    3.21821 (28) obj. 26550.2 iterations 41
Cbc0038I Pass  78: suminf.    6.45555 (34) obj. 26550.2 iterations 218
Cbc0038I Pass  79: suminf.    6.47401 (32) obj. 26550.2 iterations 50
Cbc0038I Pass  80: suminf.    3.08973 (28) obj. 26550.2 iterations 131
Cbc0038I Pass  81: suminf.    2.78900 (25) obj. 26550.2 iterations 30
Cbc0038I Pass  82: suminf.    7.94427 (29) obj. 26550.2 iterations 122
Cbc0038I Pass  83: suminf.    3.89061 (30) obj. 26550.2 iterations 167
Cbc0038I Pass  84: suminf.    3.89061 (30) obj. 26550.2 iterations 1
Cbc0038I Pass  85: suminf.    7.14441 (29) obj. 26550.2 iterations 106
Cbc0038I Pass  86: suminf.    5.89680 (29) obj. 26550.2 iterations 68
Cbc0038I Pass  87: suminf.    5.77641 (33) obj. 26550.2 iterations 165
Cbc0038I Pass  88: suminf.    5.58922 (32) obj. 26550.2 iterations 6
Cbc0038I Pass  89: suminf.    5.89625 (29) obj. 26550.2 iterations 173
Cbc0038I Pass  90: suminf.   24.39370 (128) obj. 26550.2 iterations 306
Cbc0038I Pass  91: suminf.   12.62214 (67) obj. 26550.2 iterations 266
Cbc0038I Pass  92: suminf.   12.62214 (67) obj. 26550.2 iterations 8
Cbc0038I Pass  93: suminf.    6.91081 (35) obj. 26550.2 iterations 199
Cbc0038I Pass  94: suminf.    4.53512 (35) obj. 26550.2 iterations 72
Cbc0038I Pass  95: suminf.    9.17293 (50) obj. 26550.2 iterations 134
Cbc0038I Pass  96: suminf.    7.00535 (54) obj. 26550.2 iterations 28
Cbc0038I Pass  97: suminf.    6.18449 (31) obj. 26550.2 iterations 134
Cbc0038I Pass  98: suminf.    4.61693 (38) obj. 26550.2 iterations 104
Cbc0038I Pass  99: suminf.   11.76685 (61) obj. 26550.2 iterations 195
Cbc0038I Pass 100: suminf.    9.46157 (61) obj. 26550.2 iterations 61
Cbc0038I Pass 101: suminf.    6.34748 (36) obj. 26550.2 iterations 155
Cbc0038I Pass 102: suminf.    5.09987 (36) obj. 26550.2 iterations 72
Cbc0038I Pass 103: suminf.    8.10280 (36) obj. 26550.2 iterations 92
Cbc0038I Pass 104: suminf.    4.90027 (38) obj. 26550.2 iterations 66
Cbc0038I Pass 105: suminf.    7.62476 (34) obj. 26550.2 iterations 172
Cbc0038I Pass 106: suminf.    7.55184 (34) obj. 26550.2 iterations 34
Cbc0038I Pass 107: suminf.    1.57272 (27) obj. 26550.2 iterations 412
Cbc0038I Pass 108: suminf.    1.56127 (24) obj. 26550.2 iterations 33
Cbc0038I Pass 109: suminf.    6.82390 (31) obj. 26550.2 iterations 209
Cbc0038I Pass 110: suminf.    2.85743 (31) obj. 26550.2 iterations 118
Cbc0038I Pass 111: suminf.    1.55525 (28) obj. 26550.2 iterations 67
Cbc0038I Pass 112: suminf.    6.52966 (32) obj. 26550.2 iterations 236
Cbc0038I Pass 113: suminf.    6.07974 (32) obj. 26550.2 iterations 52
Cbc0038I Pass 114: suminf.    5.66837 (32) obj. 26550.2 iterations 170
Cbc0038I Pass 115: suminf.    2.91575 (25) obj. 26550.2 iterations 45
Cbc0038I Pass 116: suminf.    2.97283 (25) obj. 26550.2 iterations 13
Cbc0038I Pass 117: suminf.    7.59486 (31) obj. 26550.2 iterations 167
Cbc0038I Pass 118: suminf.    7.59541 (31) obj. 26550.2 iterations 12
Cbc0038I Pass 119: suminf.    7.55384 (31) obj. 26550.2 iterations 114
Cbc0038I Pass 120: suminf.    5.43616 (31) obj. 26550.2 iterations 62
Cbc0038I Pass 121: suminf.   28.15167 (163) obj. 26550.2 iterations 450
Cbc0038I No solution found this major pass
Cbc0038I Before mini branch and bound, 62 integers at bound fixed and 0 continuous
Cbc0038I Full problem 1200 rows 402 columns, reduced to 1081 rows 340 columns - 152 fixed gives 116, 44 - ok now
Cbc0038I Full problem 1200 rows 402 columns, reduced to 53 rows 21 columns
Cbc0038I Mini branch and bound did not improve solution (1.12 seconds)
Cbc0038I After 1.12 seconds - Feasibility pump exiting with objective of 27648 - took 0.98 seconds
Cbc0012I Integer solution of 27648 found by feasibility pump after 0 iterations and 0 nodes (1.12 seconds)
Cbc0038I Full problem 1200 rows 402 columns, reduced to 846 rows 222 columns - 147 fixed gives 37, 15 - ok now
Cbc0038I Full problem 1200 rows 402 columns, reduced to 2 rows 2 columns
Cbc0006I The LP relaxation is infeasible or too expensive
Cbc0031I 18 added rows had average density of 2.7777778
Cbc0013I At root node, 29 cuts changed objective from 23990.857 to 26624 in 3 passes
Cbc0014I Cut generator 0 (Probing) - 253 row cuts average 2.1 elements, 57 column cuts (57 active)  in 0.008 seconds - new frequency is 1
Cbc0014I Cut generator 1 (Gomory) - 2 row cuts average 2.5 elements, 0 column cuts (0 active)  in 0.004 seconds - new frequency is -100
Cbc0014I Cut generator 2 (Knapsack) - 5 row cuts average 6.0 elements, 0 column cuts (0 active)  in 0.001 seconds - new frequency is 1
Cbc0014I Cut generator 3 (Clique) - 0 row cuts average 0.0 elements, 0 column cuts (0 active)  in 0.000 seconds - new frequency is -100
Cbc0014I Cut generator 4 (MixedIntegerRounding2) - 0 row cuts average 0.0 elements, 0 column cuts (0 active)  in 0.001 seconds - new frequency is -100
Cbc0014I Cut generator 5 (FlowCover) - 1 row cuts average 2.0 elements, 0 column cuts (0 active)  in 0.001 seconds - new frequency is -100
Cbc0014I Cut generator 6 (TwoMirCuts) - 110 row cuts average 150.9 elements, 0 column cuts (0 active)  in 0.037 seconds - new frequency is 1
Cbc0001I Search completed - best objective 27648, took 1888 iterations and 0 nodes (1.44 seconds)
Cbc0035I Maximum depth 0, 5 variables fixed on reduced cost
Cuts at root node changed objective from 23990.9 to 26624
Probing was tried 3 times and created 310 cuts of which 0 were active after adding rounds of cuts (0.008 seconds)
Gomory was tried 2 times and created 2 cuts of which 0 were active after adding rounds of cuts (0.004 seconds)
Knapsack was tried 2 times and created 5 cuts of which 0 were active after adding rounds of cuts (0.001 seconds)
Clique was tried 2 times and created 0 cuts of which 0 were active after adding rounds of cuts (0.000 seconds)
MixedIntegerRounding2 was tried 2 times and created 0 cuts of which 0 were active after adding rounds of cuts (0.001 seconds)
FlowCover was tried 2 times and created 1 cuts of which 0 were active after adding rounds of cuts (0.001 seconds)
TwoMirCuts was tried 2 times and created 110 cuts of which 0 were active after adding rounds of cuts (0.037 seconds)
ZeroHalf was tried 1 times and created 0 cuts of which 0 were active after adding rounds of cuts (0.005 seconds)

Result - Optimal solution found

Objective value:                27648.00000000
Enumerated nodes:               0
Total iterations:               1888
Time (CPU seconds):             1.47
Time (Wallclock seconds):       1.49

Total time (CPU seconds):       1.47   (Wallclock seconds):       1.50

